nodes = 6;
edges = 12;
starts = [1, 1, 2, 3, 4, 5, 2, 4, 3, 6, 5, 6];
ends = [2, 4, 3, 6, 5, 6, 1, 1, 2, 3, 4, 5];
weights = [11, 8, 8, 10, 1, 1, 11, 8, 8, 10, 1, 1];
start = 1;
end= 6;
tasks = 2;
task = array2d(1..tasks, 1..nodes, [0, 0, 0, 0, 1, 0, 0, 0, 0, 0, 0, 1]);
